MARKOV
232
 2 2 2 2 2 2 2 2 2 2 2 2 2 2 2 2 2 2 2 2 2 2 2 2 2 2 2 2 2 2 2 2 2 2 2 2 2 2 2 2 2 2 2 2 2 2 2 2 2 2 2 2 2 2 2 2 2 2 2 2 2 2 2 2 2 2 2 2 2 2 2 2 2 2 2 2 2 2 2 2 2 2 2 2 2 2 2 2 2 2 2 2 2 2 2 2 2 2 2 2 2 2 2 2 2 2 2 2 2 2 2 2 2 2 2 2 2 2 2 2 2 2 2 2 2 2 2 2 2 2 2 2 2 2 2 2 2 2 2 2 2 2 2 2 2 2 2 2 2 2 2 2 2 2 2 2 2 2 2 2 2 2 2 2 2 2 2 2 2 2 2 2 2 2 2 2 2 2 2 2 2 2 2 2 2 2 2 2 2 2 2 2 2 2 2 2 2 2 2 2 2 2 2 2 2 2 2 2 2 2 2 2 2 2 2 2 2 2 2 2 2 2 2 2 2 2 2 2 2 2 2 2
864
1	0 
1	1 
1	2 
1	3 
1	4 
1	5 
1	6 
1	7 
1	8 
1	9 
1	10 
1	11 
1	12 
1	13 
1	14 
1	15 
1	16 
1	17 
1	18 
1	19 
1	20 
1	21 
1	22 
1	23 
1	24 
1	25 
1	26 
1	27 
1	28 
1	29 
1	30 
1	31 
1	32 
1	33 
1	34 
1	35 
1	36 
1	37 
1	38 
1	39 
1	40 
1	41 
1	42 
1	43 
1	44 
1	45 
1	46 
1	47 
1	48 
1	49 
1	50 
1	51 
1	52 
1	53 
1	54 
1	55 
1	56 
1	57 
1	58 
1	59 
1	60 
1	61 
1	62 
1	63 
1	64 
1	65 
1	66 
1	67 
1	68 
1	69 
1	70 
1	71 
1	72 
1	73 
1	74 
1	75 
1	76 
1	77 
1	78 
1	79 
1	80 
1	81 
1	82 
1	83 
1	84 
1	85 
1	86 
1	87 
1	88 
1	89 
1	90 
1	91 
1	92 
1	93 
1	94 
1	95 
1	96 
1	97 
1	98 
1	99 
1	100 
1	101 
1	102 
1	103 
1	104 
1	105 
1	106 
1	107 
1	108 
1	109 
1	110 
1	111 
1	112 
1	113 
1	114 
1	115 
1	116 
1	117 
1	118 
1	119 
1	120 
1	121 
1	122 
1	123 
1	124 
1	125 
1	126 
1	127 
1	128 
1	129 
1	130 
1	131 
1	132 
1	133 
1	134 
1	135 
1	136 
1	137 
1	138 
1	139 
1	140 
1	141 
1	142 
1	143 
1	144 
1	145 
1	146 
1	147 
1	148 
1	149 
1	150 
1	151 
1	152 
1	153 
1	154 
1	155 
1	156 
1	157 
1	158 
1	159 
1	160 
1	161 
1	162 
1	163 
1	164 
1	165 
1	166 
1	167 
1	168 
1	169 
1	170 
1	171 
1	172 
1	173 
1	174 
1	175 
1	176 
1	177 
1	178 
1	179 
1	180 
1	181 
1	182 
1	183 
1	184 
1	185 
1	186 
1	187 
1	188 
1	189 
1	190 
1	191 
1	192 
1	193 
1	194 
1	195 
1	196 
1	197 
1	198 
1	199 
1	200 
1	201 
1	202 
1	203 
1	204 
1	205 
1	206 
1	207 
1	208 
1	209 
1	210 
1	211 
1	212 
1	213 
1	214 
1	215 
1	216 
1	217 
1	218 
1	219 
1	220 
1	221 
1	222 
1	223 
1	224 
1	225 
1	226 
1	227 
1	228 
1	229 
1	230 
1	231 
2	1 2 
2	1 3 
2	1 10 
2	1 11 
2	1 87 
2	1 89 
2	2 3 
2	2 11 
2	2 108 
2	2 204 
2	2 205 
2	3 89 
2	3 202 
2	3 205 
2	4 5 
2	4 7 
2	4 8 
2	4 211 
2	4 213 
2	5 6 
2	5 8 
2	5 210 
2	5 211 
2	6 8 
2	6 95 
2	6 96 
2	6 97 
2	6 208 
2	6 210 
2	7 8 
2	7 213 
2	7 231 
2	8 97 
2	9 10 
2	9 87 
2	9 88 
2	9 183 
2	9 184 
2	10 11 
2	10 41 
2	10 87 
2	10 184 
2	11 40 
2	11 41 
2	11 108 
2	12 13 
2	12 14 
2	12 15 
2	12 16 
2	12 112 
2	12 116 
2	13 14 
2	13 16 
2	13 60 
2	13 62 
2	14 15 
2	14 62 
2	14 141 
2	14 142 
2	14 173 
2	15 115 
2	15 116 
2	15 173 
2	15 174 
2	16 60 
2	16 112 
2	17 18 
2	17 19 
2	17 29 
2	17 50 
2	17 52 
2	17 157 
2	18 19 
2	18 20 
2	18 25 
2	18 27 
2	18 29 
2	19 20 
2	19 50 
2	20 23 
2	20 25 
2	21 22 
2	21 24 
2	21 26 
2	21 91 
2	21 95 
2	21 208 
2	22 24 
2	22 25 
2	22 26 
2	22 27 
2	23 24 
2	23 25 
2	24 25 
2	24 91 
2	25 27 
2	26 27 
2	26 28 
2	26 206 
2	26 208 
2	26 209 
2	27 28 
2	27 29 
2	28 29 
2	28 151 
2	28 154 
2	28 209 
2	29 154 
2	29 157 
2	30 31 
2	30 32 
2	30 33 
2	30 104 
2	31 33 
2	31 215 
2	31 216 
2	32 33 
2	32 101 
2	32 104 
2	32 187 
2	32 188 
2	33 100 
2	33 187 
2	33 216 
2	33 217 
2	34 35 
2	34 66 
2	34 67 
2	34 98 
2	34 127 
2	35 67 
2	35 98 
2	35 99 
2	35 161 
2	35 186 
2	36 39 
2	36 40 
2	36 108 
2	36 110 
2	36 165 
2	36 167 
2	37 38 
2	37 40 
2	37 41 
2	37 42 
2	37 44 
2	37 185 
2	38 39 
2	38 40 
2	38 42 
2	38 111 
2	38 126 
2	39 40 
2	39 124 
2	39 125 
2	39 126 
2	39 165 
2	40 41 
2	40 108 
2	41 184 
2	41 185 
2	42 43 
2	42 44 
2	42 111 
2	42 114 
2	43 44 
2	43 114 
2	44 183 
2	44 185 
2	45 46 
2	45 48 
2	45 49 
2	45 51 
2	46 47 
2	46 48 
2	46 51 
2	46 132 
2	46 135 
2	46 139 
2	47 48 
2	47 139 
2	47 140 
2	49 50 
2	49 51 
2	49 52 
2	50 52 
2	51 52 
2	51 135 
2	51 155 
2	51 158 
2	52 157 
2	52 158 
2	53 57 
2	53 58 
2	53 81 
2	53 176 
2	53 178 
2	53 218 
2	53 219 
2	54 55 
2	54 57 
2	54 58 
2	54 99 
2	54 100 
2	54 217 
2	55 56 
2	55 57 
2	55 70 
2	55 216 
2	55 217 
2	56 57 
2	56 70 
2	56 71 
2	56 219 
2	56 220 
2	57 58 
2	57 219 
2	58 99 
2	58 178 
2	59 60 
2	59 61 
2	59 62 
2	59 105 
2	60 62 
2	61 62 
2	61 105 
2	61 142 
2	61 143 
2	62 142 
2	63 64 
2	63 65 
2	63 101 
2	63 102 
2	63 223 
2	64 65 
2	64 75 
2	64 76 
2	64 118 
2	64 223 
2	64 224 
2	65 101 
2	65 103 
2	65 117 
2	65 118 
2	66 67 
2	66 120 
2	66 127 
2	66 128 
2	66 160 
2	67 160 
2	67 161 
2	68 69 
2	68 70 
2	68 71 
2	68 72 
2	69 72 
2	70 71 
2	70 72 
2	70 216 
2	71 220 
2	72 215 
2	72 216 
2	73 76 
2	73 77 
2	73 117 
2	73 118 
2	74 75 
2	74 76 
2	74 77 
2	74 182 
2	74 229 
2	75 76 
2	75 196 
2	75 199 
2	75 224 
2	75 229 
2	76 77 
2	76 118 
2	77 179 
2	77 182 
2	78 80 
2	78 81 
2	78 176 
2	78 177 
2	78 189 
2	79 80 
2	79 141 
2	79 144 
2	79 171 
2	80 144 
2	80 169 
2	80 171 
2	80 177 
2	80 189 
2	81 176 
2	81 189 
2	81 218 
2	82 83 
2	82 84 
2	82 85 
2	82 133 
2	82 134 
2	82 149 
2	83 84 
2	83 85 
2	83 86 
2	83 89 
2	84 86 
2	84 134 
2	85 89 
2	85 149 
2	85 202 
2	86 87 
2	86 88 
2	86 89 
2	87 88 
2	87 89 
2	90 92 
2	90 93 
2	90 94 
2	90 96 
2	90 97 
2	91 92 
2	91 93 
2	91 95 
2	92 93 
2	92 94 
2	93 95 
2	93 96 
2	95 96 
2	95 208 
2	96 97 
2	98 99 
2	98 127 
2	98 175 
2	98 178 
2	99 100 
2	99 178 
2	99 186 
2	100 186 
2	100 187 
2	100 217 
2	101 102 
2	101 103 
2	101 104 
2	101 188 
2	102 162 
2	102 188 
2	102 223 
2	103 104 
2	106 107 
2	106 108 
2	106 109 
2	106 110 
2	106 204 
2	107 109 
2	107 110 
2	107 129 
2	107 130 
2	107 167 
2	107 227 
2	108 110 
2	108 204 
2	109 129 
2	109 190 
2	109 203 
2	109 204 
2	110 167 
2	111 113 
2	111 114 
2	111 123 
2	111 126 
2	112 113 
2	112 114 
2	112 116 
2	113 114 
2	113 115 
2	113 116 
2	113 123 
2	115 116 
2	115 121 
2	115 123 
2	115 174 
2	117 118 
2	119 120 
2	119 121 
2	119 122 
2	119 124 
2	119 125 
2	119 128 
2	119 172 
2	120 122 
2	120 128 
2	120 160 
2	121 123 
2	121 124 
2	121 172 
2	121 174 
2	122 125 
2	122 160 
2	122 164 
2	122 166 
2	123 124 
2	123 126 
2	124 125 
2	124 126 
2	125 165 
2	125 166 
2	127 128 
2	127 175 
2	128 169 
2	128 170 
2	128 172 
2	128 175 
2	129 130 
2	129 190 
2	129 200 
2	130 197 
2	130 200 
2	130 227 
2	130 228 
2	131 132 
2	131 136 
2	131 137 
2	131 138 
2	131 139 
2	132 135 
2	132 137 
2	132 139 
2	133 134 
2	133 135 
2	133 137 
2	133 148 
2	133 149 
2	134 136 
2	134 137 
2	135 137 
2	135 148 
2	135 155 
2	136 137 
2	138 139 
2	138 140 
2	139 140 
2	141 142 
2	141 143 
2	141 144 
2	141 171 
2	141 173 
2	142 143 
2	143 144 
2	144 189 
2	145 146 
2	145 147 
2	145 148 
2	145 149 
2	145 155 
2	145 159 
2	146 147 
2	146 152 
2	146 153 
2	146 156 
2	146 159 
2	146 201 
2	147 149 
2	147 201 
2	147 202 
2	147 205 
2	148 149 
2	148 155 
2	149 202 
2	150 151 
2	150 152 
2	150 153 
2	150 154 
2	150 191 
2	150 193 
2	151 154 
2	151 191 
2	151 209 
2	152 153 
2	152 193 
2	152 201 
2	152 203 
2	153 154 
2	153 156 
2	154 156 
2	154 157 
2	155 158 
2	155 159 
2	156 157 
2	156 158 
2	156 159 
2	157 158 
2	158 159 
2	160 161 
2	160 163 
2	160 164 
2	161 162 
2	161 163 
2	161 186 
2	162 163 
2	162 186 
2	162 188 
2	162 222 
2	162 223 
2	163 164 
2	163 222 
2	163 226 
2	164 166 
2	164 168 
2	164 225 
2	164 226 
2	165 166 
2	165 167 
2	166 167 
2	166 168 
2	167 168 
2	167 227 
2	168 225 
2	168 227 
2	169 170 
2	169 171 
2	169 175 
2	169 177 
2	170 171 
2	170 172 
2	170 173 
2	170 174 
2	171 173 
2	172 174 
2	173 174 
2	175 177 
2	175 178 
2	176 177 
2	176 178 
2	177 178 
2	179 180 
2	179 181 
2	179 182 
2	180 181 
2	180 182 
2	180 230 
2	180 231 
2	181 231 
2	182 229 
2	182 230 
2	183 184 
2	183 185 
2	184 185 
2	186 187 
2	186 188 
2	187 188 
2	190 192 
2	190 193 
2	190 200 
2	190 203 
2	191 192 
2	191 193 
2	191 195 
2	191 207 
2	191 209 
2	192 193 
2	192 194 
2	192 195 
2	192 198 
2	192 200 
2	193 203 
2	194 195 
2	194 196 
2	194 198 
2	194 212 
2	194 214 
2	194 229 
2	194 230 
2	195 207 
2	195 214 
2	196 198 
2	196 199 
2	196 229 
2	197 198 
2	197 199 
2	197 200 
2	197 221 
2	197 228 
2	198 199 
2	198 200 
2	199 221 
2	199 224 
2	201 203 
2	201 204 
2	201 205 
2	202 205 
2	203 204 
2	204 205 
2	206 207 
2	206 208 
2	206 209 
2	206 210 
2	206 214 
2	207 209 
2	207 214 
2	208 210 
2	210 211 
2	210 214 
2	211 212 
2	211 213 
2	211 214 
2	212 213 
2	212 214 
2	212 230 
2	212 231 
2	213 231 
2	215 216 
2	216 217 
2	218 219 
2	219 220 
2	221 222 
2	221 224 
2	221 225 
2	221 226 
2	221 228 
2	222 223 
2	222 224 
2	222 226 
2	223 224 
2	225 226 
2	225 227 
2	225 228 
2	227 228 
2	229 230 
2	230 231 
0	

2
 0.252912 1
2
 1 0.731567
2
 1 0.777723
2
 1 0.271636
2
 1 0.100292
2
 1 0.0516063
2
 1 0.106443
2
 1 0.084215
2
 1 0.0889998
2
 0.771175 1
2
 0.850794 1
2
 0.857288 1
2
 1 0.0319879
2
 1 0.0781831
2
 1 0.0694865
2
 1 0.0447028
2
 1 0.0294364
2
 1 0.114314
2
 1 0.132064
2
 1 0.144673
2
 1 0.0937052
2
 1 0.115198
2
 1 0.218025
2
 1 0.111879
2
 1 0.189838
2
 1 0.303024
2
 1 0.27909
2
 1 0.254083
2
 1 0.376683
2
 1 0.438939
2
 1 0.0442986
2
 1 0.0195262
2
 1 0.0690276
2
 1 0.0442824
2
 0.106115 1
2
 0.106608 1
2
 1 0.590337
2
 1 0.588532
2
 0.572271 1
2
 0.966129 1
2
 1 0.904586
2
 1 0.438439
2
 0.861177 1
2
 0.728676 1
2
 1 0.840049
2
 1 0.194051
2
 1 0.137758
2
 1 0.163715
2
 1 0.200318
2
 1 0.144818
2
 1 0.123443
2
 1 0.105077
2
 1 0.194121
2
 1 0.045994
2
 1 0.0706862
2
 1 0.0369494
2
 1 0.0440553
2
 1 0.0268765
2
 1 0.0742993
2
 1 0.194508
2
 1 0.161038
2
 1 0.228515
2
 1 0.174951
2
 1 0.321371
2
 0.438726 1
2
 1 0.321779
2
 0.0993063 1
2
 0.0518597 1
2
 1 0.0264779
2
 1 0.0288463
2
 1 0.0505942
2
 1 0.0441863
2
 1 0.0216006
2
 1 0.0622736
2
 1 0.387403
2
 0.989478 1
2
 0.450157 1
2
 1 0.238389
2
 1 0.0567241
2
 1 0.167189
2
 1 0.243012
2
 1 0.0501045
2
 1 0.163591
2
 1 0.29949
2
 1 0.140237
2
 1 0.336758
2
 1 0.0995007
2
 1 0.343527
2
 1 0.242386
2
 1 0.357833
2
 1 0.118775
2
 1 0.125089
2
 1 0.11845
2
 1 0.112594
2
 1 0.123751
2
 1 0.132327
2
 1 0.0943077
2
 1 0.0852632
2
 0.20726 1
2
 1 0.557059
2
 1 0.0497145
2
 1 0.102121
2
 1 0.30257
2
 1 0.077847
2
 1 0.0276229
2
 1 0.17603
2
 0.229791 1
2
 0.792772 1
2
 0.864247 1
2
 0.118262 1
2
 0.671541 1
2
 1 0.124188
2
 1 0.0311737
2
 1 0.147919
2
 1 0.0800059
2
 1 0.0612936
2
 1 0.0512965
2
 1 0.363538
2
 0.351351 1
2
 1 0.820909
2
 0.87694 1
2
 1 0.206425
2
 1 0.534484
2
 1 0.178827
2
 1 0.189638
2
 1 0.425592
2
 1 0.201075
2
 0.0620761 1
2
 0.110168 1
2
 0.0834564 1
2
 0.112943 1
2
 1 0.235605
2
 1 0.154978
2
 1 0.259137
2
 1 0.151001
2
 1 0.161053
2
 1 0.144738
2
 1 0.165088
2
 1 0.100739
2
 1 0.116604
2
 1 0.189548
2
 1 0.0889891
2
 1 0.218245
2
 1 0.142975
2
 1 0.160482
2
 1 0.523526
2
 1 0.434242
2
 1 0.469225
2
 1 0.315262
2
 1 0.490217
2
 1 0.642472
2
 1 0.527951
2
 1 0.585853
2
 1 0.759076
2
 1 0.40923
2
 1 0.238449
2
 1 0.404641
2
 1 0.473486
2
 1 0.354254
2
 1 0.327959
2
 0.327714 1
2
 0.0115768 1
2
 1 0.352909
2
 0.089763 1
2
 0.953549 1
2
 1 0.359585
2
 0.874684 1
2
 1 0.888224
2
 1 0.59213
2
 1 0.286723
2
 1 0.418037
2
 1 0.0568004
2
 1 0.657147
2
 1 0.0366845
2
 1 0.104123
2
 1 0.370446
2
 1 0.0369894
2
 1 0.0520853
2
 1 0.115156
2
 1 0.122853
2
 1 0.240162
2
 1 0.131414
2
 1 0.365041
2
 1 0.278645
2
 1 0.514639
2
 1 0.43828
2
 1 0.133597
2
 1 0.0507161
2
 1 0.0890037
2
 1 0.408314
2
 0.567557 1
2
 1 0.334284
2
 1 0.681103
2
 1 0.50699
2
 1 0.659054
2
 1 0.577171
2
 1 0.98065
2
 0.352955 1
2
 1 0.714888
2
 0.550897 1
2
 1 0.429919
2
 1 0.429747
2
 1 0.266106
2
 1 0.849985
2
 1 0.904276
2
 1 0.438648
2
 1 0.256439
2
 1 0.463675
2
 1 0.202188
2
 1 0.765802
2
 1 0.181842
2
 1 0.242536
2
 1 0.41182
2
 1 0.186477
2
 1 0.438795
2
 1 0.0474091
2
 1 0.0646336
2
 1 0.0424228
2
 1 0.0902353
2
 1 0.0581309
2
 1 0.0720023
2
 0.905096 1
2
 1 0.424229
2
 0.831827 1
2
 0.496012 1
2
 1 0.638296
2
 1 0.620236
2
 0.798322 1
2
 0.85096 1
2
 1 0.547941
2
 1 0.482167
2
 1 0.147169
4
 1 0.323758 0.323758 0.991593
4
 1 0.32711 0.32711 0.987929
4
 1 0.328204 0.328204 0.991701
4
 1 0.32371 0.32371 0.994338
4
 1 0.330865 0.330865 0.988038
4
 1 0.330832 0.330832 0.985494
4
 1 0.323483 0.323483 0.989594
4
 1 0.32012 0.32012 0.996014
4
 1 0.316757 0.316757 0.997916
4
 1 0.31744 0.31744 0.993673
4
 1 0.320712 0.320712 0.989707
4
 1 0.33055 0.33055 0.983507
4
 1 0.327251 0.327251 0.983362
4
 1 0.324032 0.324032 0.98605
4
 1 0.280832 0.280832 0.992213
4
 1 0.275589 0.275589 0.998278
4
 1 0.277554 0.277554 0.993662
4
 1 0.282287 0.282287 0.993324
4
 1 0.279008 0.279008 0.997045
4
 1 0.284748 0.284748 0.986259
4
 1 0.280287 0.280287 0.990361
4
 1 0.287161 0.287161 0.986921
4
 1 0.285066 0.285066 0.990025
4
 1 0.281425 0.281425 0.987699
4
 1 0.288609 0.288609 0.979645
4
 1 0.285434 0.285434 0.981883
4
 1 0.282756 0.282756 0.983904
4
 1 0.289026 0.289026 0.981843
4
 1 0.288328 0.288328 0.984268
4
 1 0.275055 0.275055 0.996415
4
 1 0.276495 0.276495 0.999808
4
 0.997429 0.27391 0.27391 1
4
 1 0.278325 0.278325 0.987997
4
 1 0.333702 0.333702 0.991253
4
 1 0.336408 0.336408 0.987592
4
 1 0.339909 0.339909 0.986188
4
 1 0.337408 0.337408 0.992623
4
 1 0.335417 0.335417 0.992068
4
 1 0.324516 0.324516 0.996123
4
 1 0.326813 0.326813 0.996829
4
 1 0.331689 0.331689 0.989811
4
 1 0.330712 0.330712 0.994297
4
 0.997308 0.317535 0.317535 1
4
 1 0.322338 0.322338 0.99948
4
 0.999322 0.316494 0.316494 1
4
 0.963423 0.302113 0.302113 1
4
 0.961551 0.297945 0.297945 1
4
 0.964539 0.299983 0.299983 1
4
 0.966852 0.306674 0.306674 1
4
 0.971234 0.309662 0.309662 1
4
 0.968586 0.305101 0.305101 1
4
 0.958824 0.296234 0.296234 1
4
 0.964109 0.304912 0.304912 1
4
 0.959544 0.301409 0.301409 1
4
 0.957214 0.297045 0.297045 1
4
 0.959934 0.294145 0.294145 1
4
 0.955353 0.292947 0.292947 1
4
 0.953032 0.286786 0.286786 1
4
 0.953354 0.28919 0.28919 1
4
 0.95678 0.289432 0.289432 1
4
 0.966377 0.29839 0.29839 1
4
 0.966957 0.30121 0.30121 1
4
 0.959753 0.291412 0.291412 1
4
 0.963346 0.293973 0.293973 1
4
 0.962958 0.30596 0.30596 1
4
 0.971925 0.312532 0.312532 1
4
 1 0.316909 0.316909 0.962142
4
 1 0.321144 0.321144 0.958049
4
 1 0.31661 0.31661 0.965058
4
 1 0.324229 0.324229 0.956939
4
 1 0.32418 0.32418 0.959588
4
 1 0.320684 0.320684 0.963219
4
 1 0.317995 0.317995 0.959054
4
 1 0.314548 0.314548 0.960491
4
 1 0.310478 0.310478 0.964413
4
 1 0.310834 0.310834 0.966469
4
 1 0.313505 0.313505 0.96607
4
 1 0.318751 0.318751 0.956405
4
 1 0.32534 0.32534 0.953868
4
 1 0.312126 0.312126 0.959022
4
 1 0.311216 0.311216 0.96175
4
 1 0.299212 0.299212 0.971836
4
 1 0.299332 0.299332 0.968971
4
 1 0.298916 0.298916 0.974491
4
 1 0.296807 0.296807 0.969951
4
 1 0.293978 0.293978 0.974639
4
 1 0.294402 0.294402 0.976827
4
 1 0.301927 0.301927 0.967233
4
 1 0.304486 0.304486 0.967882
4
 1 0.301507 0.301507 0.972743
4
 1 0.304835 0.304835 0.969946
4
 1 0.305498 0.305498 0.962292
4
 1 0.308087 0.308087 0.962938
4
 1 0.304608 0.304608 0.965029
4
 1 0.299501 0.299501 0.965357
4
 1 0.307541 0.307541 0.967736
4
 1 0.304533 0.304533 0.972595
4
 1 0.303583 0.303583 0.975836
4
 1 0.298611 0.298611 0.978797
4
 1 0.29666 0.29666 0.977738
4
 1 0.3008 0.3008 0.979308
4
 1 0.306933 0.306933 0.97303
4
 1 0.31054 0.31054 0.969399
4
 1 0.309571 0.309571 0.972629
4
 1 0.305443 0.305443 0.979488
4
 1 0.309265 0.309265 0.975286
4
 1 0.30317 0.30317 0.979746
4
 1 0.312899 0.312899 0.971646
4
 1 0.317239 0.317239 0.967152
4
 0.942096 0.238485 0.238485 1
4
 0.947252 0.243492 0.243492 1
4
 0.944354 0.242182 0.242182 1
4
 0.948207 0.242014 0.242014 1
4
 0.941182 0.240283 0.240283 1
4
 0.935954 0.234861 0.234861 1
4
 0.93711 0.237539 0.237539 1
4
 0.946334 0.245329 0.245329 1
4
 0.953042 0.249086 0.249086 1
4
 0.950195 0.245158 0.245158 1
4
 0.949843 0.249341 0.249341 1
4
 0.95283 0.251404 0.251404 1
4
 0.945382 0.24848 0.24848 1
4
 0.946937 0.248 0.248 1
4
 0.939357 0.241223 0.241223 1
4
 0.943016 0.245275 0.245275 1
4
 0.955478 0.265964 0.265964 1
4
 0.958235 0.27148 0.27148 1
4
 0.957696 0.268723 0.268723 1
4
 0.953518 0.266459 0.266459 1
4
 0.95591 0.270542 0.270542 1
4
 0.957373 0.266488 0.266488 1
4
 0.953195 0.264244 0.264244 1
4
 0.952054 0.261055 0.261055 1
4
 0.958016 0.265015 0.265015 1
4
 0.954583 0.261283 0.261283 1
4
 0.985412 0.304919 0.304919 1
4
 0.990731 0.310438 0.310438 1
4
 0.992731 0.309421 0.309421 1
4
 0.989322 0.305442 0.305442 1
4
 0.98449 0.301558 0.301558 1
4
 0.986257 0.301349 0.301349 1
4
 0.989883 0.316219 0.316219 1
4
 0.993404 0.317443 0.317443 1
4
 0.996603 0.322412 0.322412 1
4
 0.9917 0.320701 0.320701 1
4
 0.994485 0.324974 0.324974 1
4
 0.996158 0.324808 0.324808 1
4
 0.984567 0.307847 0.307847 1
4
 0.989882 0.313418 0.313418 1
4
 0.988184 0.316635 0.316635 1
4
 0.984276 0.312598 0.312598 1
4
 0.982804 0.308746 0.308746 1
4
 0.988069 0.309038 0.309038 1
4
 0.9795 0.300922 0.300922 1
4
 0.978693 0.297551 0.297551 1
4
 0.981004 0.304431 0.304431 1
4
 0.981844 0.300198 0.300198 1
4
 0.996602 0.319556 0.319556 1
4
 0.995407 0.3136 0.3136 1
4
 1 0.328492 0.328492 0.997648
4
 0.999365 0.32697 0.32697 1
4
 0.990517 0.323957 0.323957 1
4
 0.992778 0.325401 0.325401 1
4
 0.986082 0.317028 0.317028 1
4
 0.987301 0.321358 0.321358 1
4
 0.993299 0.328273 0.328273 1
4
 0.987819 0.324194 0.324194 1
4
 0.999668 0.333667 0.333667 1
4
 0.997241 0.329568 0.329568 1
4
 1 0.341816 0.341816 0.949733
4
 1 0.342901 0.342901 0.946862
4
 1 0.337186 0.337186 0.949629
4
 1 0.337985 0.337985 0.952365
4
 1 0.347261 0.347261 0.947674
4
 1 0.344607 0.344607 0.948384
4
 1 0.339667 0.339667 0.953896
4
 1 0.346136 0.346136 0.951863
4
 1 0.342747 0.342747 0.95475
4
 1 0.348388 0.348388 0.948843
4
 1 0.348364 0.348364 0.94481
4
 1 0.352186 0.352186 0.945267
4
 1 0.355832 0.355832 0.941775
4
 1 0.331356 0.331356 0.951906
4
 1 0.335066 0.335066 0.953791
4
 1 0.331307 0.331307 0.954542
4
 1 0.328416 0.328416 0.9554
4
 1 0.332092 0.332092 0.957292
4
 1 0.338906 0.338906 0.957395
4
 1 0.334812 0.334812 0.959726
4
 1 0.331417 0.331417 0.960338
4
 1 0.324825 0.324825 0.96167
4
 1 0.327698 0.327698 0.961093
4
 0.93691 0.250099 0.250099 1
4
 0.940278 0.253672 0.253672 1
4
 0.935828 0.253561 0.253561 1
4
 0.939156 0.255678 0.255678 1
4
 0.942109 0.25722 0.25722 1
4
 0.934114 0.250574 0.250574 1
4
 0.933834 0.248844 0.248844 1
4
 0.937992 0.245044 0.245044 1
4
 0.93873 0.248019 0.248019 1
4
 0.942105 0.251562 0.251562 1
4
 0.945103 0.25344 0.25344 1
4
 0.94429 0.250801 0.250801 1
4
 0.941927 0.247567 0.247567 1
4
 0.932782 0.241118 0.241118 1
4
 0.935472 0.244482 0.244482 1
4
 0.931352 0.237809 0.237809 1
4
 0.935014 0.240004 0.240004 1
4
 0.938657 0.244036 0.244036 1
4
 0.933516 0.244046 0.244046 1
4
 0.929405 0.237385 0.237385 1
4
 0.92722 0.237238 0.237238 1
4
 0.930451 0.242821 0.242821 1
4
 0.928643 0.240005 0.240005 1
4
 0.939574 0.250985 0.250985 1
4
 0.933134 0.246209 0.246209 1
4
 0.945953 0.25647 0.25647 1
4
 0.944789 0.258131 0.258131 1
4
 0.955322 0.299777 0.299777 1
4
 0.949872 0.292649 0.292649 1
4
 0.953002 0.295436 0.295436 1
4
 0.950158 0.29534 0.29534 1
4
 0.956071 0.298065 0.298065 1
4
 0.950617 0.290979 0.290979 1
4
 0.94778 0.290884 0.290884 1
4
 0.948628 0.287247 0.287247 1
4
 0.945441 0.283729 0.283729 1
4
 0.951753 0.289983 0.289983 1
4
 0.968847 0.261757 0.261757 1
4
 0.963897 0.255664 0.255664 1
4
 0.961415 0.255599 0.255599 1
4
 0.963539 0.258873 0.258873 1
4
 0.967076 0.262733 0.262733 1
4
 0.966747 0.257667 0.257667 1
4
 0.976373 0.267849 0.267849 1
4
 0.972692 0.26279 0.26279 1
4
 0.969715 0.260215 0.260215 1
4
 0.969936 0.264791 0.264791 1
4
 0.97375 0.267234 0.267234 1
4
 0.959331 0.251605 0.251605 1
4
 0.959115 0.249467 0.249467 1
4
 0.963246 0.25143 0.25143 1
4
 0.96476 0.254158 0.254158 1
4
 0.960134 0.272015 0.272015 1
4
 0.963264 0.277899 0.277899 1
4
 0.958344 0.273856 0.273856 1
4
 0.960389 0.277192 0.277192 1
4
 0.963623 0.275679 0.275679 1
4
 0.963081 0.272879 0.272879 1
4
 0.960239 0.267764 0.267764 1
4
 0.92086 0.227098 0.227098 1
4
 0.924794 0.231631 0.231631 1
4
 0.92262 0.231488 0.231488 1
4
 0.924413 0.229562 0.229562 1
4
 0.923652 0.227496 0.227496 1
4
 0.925798 0.233982 0.233982 1
4
 0.927597 0.232036 0.232036 1
4
 0.931629 0.236288 0.236288 1
4
 0.92504 0.236565 0.236565 1
4
 0.930095 0.231537 0.231537 1
4
 0.931245 0.234178 0.234178 1
4
 0.972362 0.258871 0.258871 1
4
 0.974216 0.25807 0.25807 1
4
 0.967864 0.253584 0.253584 1
4
 0.969386 0.256335 0.256335 1
4
 0.980395 0.269238 0.269238 1
4
 0.976699 0.264153 0.264153 1
4
 0.978561 0.263335 0.263335 1
4
 0.982998 0.268875 0.268875 1
4
 0.984507 0.272011 0.272011 1
4
 0.977358 0.266815 0.266815 1
4
 0.98602 0.277025 0.277025 1
4
 0.983113 0.275485 0.275485 1
4
 0.97842 0.271328 0.271328 1
4
 0.985171 0.274752 0.274752 1
4
 0.975529 0.260965 0.260965 1
4
 0.970693 0.259211 0.259211 1
4
 0.980609 0.262051 0.262051 1
4
 0.981822 0.26563 0.26563 1
4
 0.94113 0.265414 0.265414 1
4
 0.9366 0.258151 0.258151 1
4
 0.939932 0.260306 0.260306 1
4
 0.942008 0.263639 0.263639 1
4
 0.936917 0.260896 0.260896 1
4
 0.94501 0.272186 0.272186 1
4
 0.94802 0.278521 0.278521 1
4
 0.943635 0.27344 0.27344 1
4
 0.949579 0.277365 0.277365 1
4
 0.941731 0.270101 0.270101 1
4
 0.947343 0.2717 0.2717 1
4
 0.947663 0.273978 0.273978 1
4
 0.943983 0.267064 0.267064 1
4
 0.938882 0.264285 0.264285 1
4
 0.937369 0.256472 0.256472 1
4
 0.934363 0.257053 0.257053 1
4
 0.932336 0.251353 0.251353 1
4
 1 0.341878 0.341878 0.97094
4
 1 0.34529 0.34529 0.968583
4
 1 0.338541 0.338541 0.972249
4
 1 0.342399 0.342399 0.966307
4
 1 0.346269 0.346269 0.965258
4
 1 0.337347 0.337347 0.970942
4
 1 0.345396 0.345396 0.970612
4
 1 0.338645 0.338645 0.974285
4
 1 0.342749 0.342749 0.974902
4
 1 0.338125 0.338125 0.97702
4
 1 0.346169 0.346169 0.972535
4
 1 0.349832 0.349832 0.964932
4
 1 0.334825 0.334825 0.978337
4
 1 0.334156 0.334156 0.974288
4
 1 0.331483 0.331483 0.978192
4
 1 0.338916 0.338916 0.981483
4
 1 0.342444 0.342444 0.980089
4
 1 0.338882 0.338882 0.978956
4
 1 0.337859 0.337859 0.984754
4
 1 0.334345 0.334345 0.983615
4
 1 0.287158 0.287158 0.971989
4
 1 0.286705 0.286705 0.974426
4
 1 0.284128 0.284128 0.973554
4
 1 0.284089 0.284089 0.978185
4
 1 0.281423 0.281423 0.980199
4
 1 0.29405 0.29405 0.967057
4
 1 0.293586 0.293586 0.969482
4
 1 0.294144 0.294144 0.971004
4
 1 0.290694 0.290694 0.970208
4
 1 0.288082 0.288082 0.96934
4
 1 0.290787 0.290787 0.974168
4
 1 0.287588 0.287588 0.976393
4
 1 0.288134 0.288134 0.977926
4
 1 0.29176 0.29176 0.977887
4
 1 0.28229 0.28229 0.982178
4
 0.950101 0.261541 0.261541 1
4
 0.953626 0.268792 0.268792 1
4
 0.951028 0.267199 0.267199 1
4
 0.948931 0.263235 0.263235 1
4
 0.948146 0.255695 0.255695 1
4
 0.947795 0.260058 0.260058 1
4
 0.951484 0.25861 0.25861 1
4
 0.950665 0.255918 0.255918 1
4
 0.948888 0.252544 0.252544 1
4
 0.944959 0.24977 0.24977 1
4
 0.958975 0.254762 0.254762 1
4
 0.956645 0.249404 0.249404 1
4
 0.954003 0.247574 0.247574 1
4
 0.956649 0.253882 0.253882 1
4
 0.962138 0.261224 0.261224 1
4
 0.958762 0.257133 0.257133 1
4
 0.964622 0.261873 0.261873 1
4
 0.953788 0.245471 0.245471 1
4
 0.994844 0.30494 0.30494 1
4
 0.997677 0.310822 0.310822 1
4
 0.999279 0.308406 0.308406 1
4
 0.994251 0.306825 0.306825 1
4
 1 0.312218 0.312218 0.998068
4
 0.996183 0.304273 0.304273 1
4
 0.99117 0.302714 0.302714 1
4
 0.994359 0.300689 0.300689 1
4
 0.990982 0.297245 0.297245 1
4
 0.988099 0.298658 0.298658 1
4
 0.988688 0.296163 0.296163 1
4
 0.993992 0.308553 0.308553 1
4
 1 0.314058 0.314058 0.998328
4
 0.998791 0.304106 0.304106 1
4
 1 0.304866 0.304866 0.998594
4
 1 0.308748 0.308748 0.995797
4
 1 0.311117 0.311117 0.996727
4
 0.98751 0.300504 0.300504 1
4
 0.9798 0.311904 0.311904 1
4
 0.983397 0.31726 0.31726 1
4
 0.978151 0.307242 0.307242 1
4
 0.980714 0.30913 0.30913 1
4
 0.976876 0.313192 0.313192 1
4
 0.980463 0.318571 0.318571 1
4
 0.973669 0.310929 0.310929 1
4
 0.981011 0.316164 0.316164 1
4
 0.973629 0.30569 0.30569 1
4
 0.974213 0.308579 0.308579 1
4
 0.975778 0.30618 0.30618 1
4
 0.970432 0.30348 0.30348 1
4
 0.969957 0.297259 0.297259 1
4
 0.971991 0.301121 0.301121 1
4
 0.966809 0.296189 0.296189 1
4
 0.966203 0.253917 0.253917 1
4
 0.967054 0.284232 0.284232 1
4
 0.969156 0.290678 0.290678 1
4
 0.969805 0.285874 0.285874 1
4
 0.97224 0.292848 0.292848 1
4
 0.971439 0.289567 0.289567 1
4
 0.964168 0.283508 0.283508 1
4
 0.966154 0.287422 0.287422 1
4
 0.968608 0.282651 0.282651 1
4
 0.962978 0.280312 0.280312 1
4
 0.96622 0.278782 0.278782 1
4
 0.972098 0.297736 0.297736 1
4
 0.973151 0.296112 0.296112 1
4
 0.967058 0.290625 0.290625 1
4
 0.966915 0.29286 0.29286 1
4
 0.973 0.287956 0.287956 1
4
 0.968968 0.280392 0.280392 1
4
 0.973069 0.283052 0.283052 1
4
 0.974309 0.286688 0.286688 1
4
 0.975191 0.299959 0.299959 1
4
 0.976688 0.303457 0.303457 1
4
 0.975443 0.29498 0.29498 1
4
 0.977746 0.301801 0.301801 1
4
 0.977778 0.294271 0.294271 1
4
 0.97595 0.290391 0.290391 1
4
 0.958059 0.276233 0.276233 1
4
 0.953414 0.271293 0.271293 1
4
 0.955843 0.277071 0.277071 1
4
 0.959065 0.281131 0.281131 1
4
 0.962081 0.283457 0.283457 1
4
 0.955449 0.274597 0.274597 1
4
 0.993577 0.297082 0.297082 1
4
 0.999574 0.301698 0.301698 1
4
 0.995657 0.296951 0.296951 1
4
 0.989349 0.289976 0.289976 1
4
 0.992276 0.29355 0.29355 1
4
 0.987911 0.29261 0.29261 1
4
 0.987023 0.289152 0.289152 1
4
 1 0.352807 0.352807 0.951255
4
 1 0.356037 0.356037 0.952676
4
 1 0.352931 0.352931 0.953532
4
 1 0.358798 0.358798 0.94689
4
 1 0.355102 0.355102 0.948237
4
 1 0.345361 0.345361 0.955355
4
 1 0.348899 0.348899 0.954746
4
 1 0.351045 0.351045 0.949444
4
 1 0.346903 0.346903 0.962664
4
 1 0.342502 0.342502 0.960978
4
 1 0.346011 0.346011 0.960366
4
 1 0.339577 0.339577 0.964901
4
 1 0.337964 0.337964 0.968333
4
 1 0.353002 0.353002 0.958462
4
 1 0.349921 0.349921 0.959323
4
 1 0.345482 0.345482 0.957642
4
 1 0.339059 0.339059 0.962165
4
 1 0.337848 0.337848 0.960585
4
 1 0.352094 0.352094 0.956173
4
 1 0.357007 0.357007 0.945088
4
 1 0.360703 0.360703 0.941596
4
 1 0.356987 0.356987 0.942936
4
 0.949441 0.283883 0.283883 1
4
 0.946252 0.280407 0.280407 1
4
 0.944731 0.276387 0.276387 1
4
 0.950681 0.280355 0.280355 1
4
 0.952853 0.284121 0.284121 1
4
 0.946572 0.282758 0.282758 1
4
 0.941875 0.275291 0.275291 1
4
 0.937516 0.265502 0.265502 1
4
 1 0.324241 0.324241 0.975495
4
 1 0.326932 0.326932 0.974984
4
 1 0.332229 0.332229 0.969133
4
 1 0.330651 0.330651 0.97258
4
 1 0.331043 0.331043 0.967542
4
 1 0.32702 0.32702 0.971238
4
 1 0.322849 0.322849 0.978307
4
 1 0.315928 0.315928 0.98212
4
 1 0.317357 0.317357 0.978822
4
 1 0.319849 0.319849 0.975389
4
 1 0.322936 0.322936 0.974549
4
 1 0.318418 0.318418 0.982559
4
 1 0.329232 0.329232 0.975383
4
 1 0.32106 0.32106 0.982044
4
 1 0.326598 0.326598 0.979292
4
 1 0.323385 0.323385 0.981969
4
 1 0.334567 0.334567 0.96953
4
 1 0.334963 0.334963 0.964507
4
 1 0.330314 0.330314 0.976878
4
 1 0.306388 0.306388 0.983411
4
 1 0.30979 0.30979 0.98477
4
 1 0.311191 0.311191 0.981463
4
 1 0.310221 0.310221 0.979192
4
 1 0.303695 0.303695 0.987611
4
 1 0.305831 0.305831 0.988016
4
 1 0.308727 0.308727 0.978498
4
 1 0.302232 0.302232 0.986911
4
 1 0.302643 0.302643 0.982973
4
 1 0.31313 0.31313 0.982122
4
 1 0.307738 0.307738 0.988679
4
 1 0.314178 0.314178 0.985872
4
 1 0.31084 0.31084 0.988825
4
 1 0.313566 0.313566 0.976559
4
 1 0.317017 0.317017 0.97539
4
 1 0.316029 0.316029 0.973134
4
 1 0.316925 0.316925 0.969794
4
 1 0.330382 0.330382 0.963537
4
 1 0.32971 0.32971 0.966603
4
 1 0.320413 0.320413 0.968633
4
 1 0.323248 0.323248 0.968052
4
 1 0.32259 0.32259 0.971132
4
 1 0.324164 0.324164 0.96473
4
 1 0.326367 0.326367 0.967219
4
 0.963728 0.27137 0.27137 1
4
 0.966795 0.274615 0.274615 1
4
 0.970671 0.279178 0.279178 1
4
 0.962033 0.265372 0.265372 1
4
 0.963942 0.269467 0.269467 1
4
 0.957441 0.262533 0.262533 1
4
 0.965095 0.268545 0.268545 1
4
 0.958586 0.261635 0.261635 1
4
 0.959804 0.260321 0.260321 1
4
 0.967477 0.268065 0.268065 1
4
 0.96567 0.26512 0.26512 1
4
 0.970887 0.27722 0.27722 1
4
 0.969397 0.272202 0.272202 1
4
 0.96987 0.274214 0.274214 1
4
 0.97602 0.285446 0.285446 1
4
 0.977918 0.285602 0.285602 1
4
 0.977039 0.282227 0.282227 1
4
 0.973758 0.27877 0.27877 1
4
 0.979093 0.292975 0.292975 1
4
 0.982686 0.296683 0.296683 1
4
 0.98085 0.292772 0.292772 1
4
 0.979163 0.28927 0.28927 1
4
 0.982757 0.292931 0.292931 1
4
 0.985037 0.294001 0.294001 1
4
 0.980186 0.286008 0.286008 1
4
 0.983343 0.290485 0.290485 1
4
 0.954809 0.278591 0.278591 1
4
 0.951923 0.27687 0.27687 1
4
 0.951209 0.272116 0.272116 1
4
 0.948227 0.269883 0.269883 1
4
 0.955132 0.280927 0.280927 1
4
 0.96104 0.285012 0.285012 1
4
 0.957313 0.284701 0.284701 1
4
 0.960898 0.287203 0.287203 1
4
 0.954419 0.282942 0.282942 1
4
 0.96392 0.289579 0.289579 1
4
 0.960182 0.289263 0.289263 1
4
 0.947836 0.267473 0.267473 1
4
 0.94872 0.265684 0.265684 1
4
 0.942782 0.261924 0.261924 1
4
 0.943661 0.260172 0.260172 1
4
 0.945746 0.263504 0.263504 1
4
 0.987046 0.267876 0.267876 1
4
 0.98745 0.266114 0.266114 1
4
 0.985056 0.267564 0.267564 1
4
 0.990667 0.270063 0.270063 1
4
 0.988266 0.271534 0.271534 1
4
 0.992561 0.275895 0.275895 1
4
 0.993078 0.273421 0.273421 1
4
 0.993485 0.271623 0.271623 1
4
 0.987788 0.274381 0.274381 1
4
 0.99056 0.275574 0.275574 1
4
 1 0.334384 0.334384 0.995671
4
 1 0.333046 0.333046 0.998652
4
 1 0.331081 0.331081 0.998094
4
 0.952228 0.255424 0.255424 1
4
 0.955223 0.257537 0.257537 1
4
 0.953438 0.254142 0.254142 1
4
 1 0.299137 0.299137 0.99815
4
 1 0.303009 0.303009 0.994871
4
 0.998265 0.298112 0.298112 1
4
 1 0.306063 0.306063 0.995018
4
 1 0.297828 0.297828 0.9948
4
 1 0.301683 0.301683 0.991532
4
 1 0.296516 0.296516 0.99313
4
 1 0.297606 0.297606 0.989758
4
 1 0.299983 0.299983 0.987171
4
 1 0.299923 0.299923 0.995208
4
 1 0.292303 0.292303 0.999797
4
 1 0.294786 0.294786 0.996811
4
 0.997889 0.292598 0.292598 1
4
 0.997928 0.294976 0.294976 1
4
 1 0.306868 0.306868 0.992085
4
 1 0.291015 0.291015 0.998118
4
 0.994943 0.285203 0.285203 1
4
 0.996582 0.288477 0.288477 1
4
 0.999713 0.28637 0.28637 1
4
 1 0.289272 0.289272 0.996964
4
 0.994087 0.282863 0.282863 1
4
 0.996877 0.284092 0.284092 1
4
 1 0.294566 0.294566 0.991759
4
 1 0.291729 0.291729 0.993987
4
 0.992641 0.285433 0.285433 1
4
 0.988087 0.280624 0.280624 1
4
 0.990156 0.279878 0.279878 1
4
 0.991383 0.287512 0.287512 1
4
 0.986834 0.282668 0.282668 1
4
 0.991421 0.289848 0.289848 1
4
 0.984183 0.28202 0.28202 1
4
 0.986173 0.285507 0.285507 1
4
 0.989715 0.283845 0.283845 1
4
 0.994315 0.291055 0.291055 1
4
 0.982528 0.278424 0.278424 1
4
 0.980472 0.274853 0.274853 1
4
 1 0.313289 0.313289 0.989267
4
 1 0.315693 0.315693 0.99019
4
 1 0.318947 0.318947 0.986237
4
 1 0.324449 0.324449 0.983474
4
 1 0.312339 0.312339 0.993157
4
 1 0.31798 0.31798 0.990115
4
 1 0.295842 0.295842 0.985294
4
 1 0.294101 0.294101 0.981143
4
 1 0.298205 0.298205 0.982719
4
 1 0.293391 0.293391 0.983567
4
 1 0.292993 0.292993 0.987507
4
 1 0.298011 0.298011 0.985808
4
 1 0.292802 0.292802 0.990612
4
 1 0.291475 0.291475 0.982503
4
 1 0.288649 0.288649 0.988027
4
 1 0.290376 0.290376 0.988875
4
 1 0.285447 0.285447 0.995292
4
 1 0.283215 0.283215 0.994847
4
 1 0.288257 0.288257 0.991985
4
 1 0.282131 0.282131 0.99902
4
 1 0.287154 0.287154 0.996146
4
 0.997696 0.282244 0.282244 1
4
 0.998216 0.279713 0.279713 1
4
 0.998662 0.27765 0.27765 1
4
 0.934138 0.235779 0.235779 1
4
 0.938936 0.242475 0.242475 1
4
 0.93035 0.246677 0.246677 1
4
 0.928263 0.242132 0.242132 1
4
 0.975831 0.274734 0.274734 1
4
 0.977837 0.274223 0.274223 1
4
 0.979597 0.280196 0.280196 1
4
 0.976306 0.276765 0.276765 1
4
 0.981869 0.281219 0.281219 1
4
 0.969975 0.26873 0.26873 1
4
 0.973789 0.27121 0.27121 1
4
 0.972264 0.273724 0.273724 1
4
 0.971969 0.268231 0.268231 1
4
 0.976016 0.279167 0.279167 1
4
 0.98246 0.287052 0.287052 1
4
 0.981577 0.28366 0.28366 1
4
 0.984739 0.2881 0.2881 1
4
 0.992081 0.278788 0.278788 1
4
 0.995384 0.277489 0.277489 1
1
 1

